 Run started: Fri, 16 Aug 2024 15:41:43 +0000

 Atomic calculation performed for Cu: 1s2 2s2 2p6 3s2 3p6 3d10 4s1

 Converged in 143 iterations to an ae energy of -45030.712 eV

   | Pseudopotential Report - Date of generation 16-08-2024   |
   | Element: Cu Ionic charge: 11.00 Level of theory: PBE     |
   | Atomic Solver: Koelling-Harmon                           |
   |               Reference Electronic Structure             |
   |         Orbital         Occupation         Energy        |
   |            3d             10.000           -0.185        |
   |            4s              1.000           -0.169        |
   |                 Pseudopotential Definition               |
   |        Beta     l      e      Rc     scheme   norm       |
   |          1      0   -0.169   1.996     qc      0         |
   |          2      0    0.250   1.996     qc      0         |
   |          3      1    0.000   1.996     qc      0         |
   |          4      1    0.250   1.996     qc      0         |
   |          5      2   -0.185   1.996     qc      0         |
   |          6      2    0.250   1.996     qc      0         |
   |         loc     3    0.000   2.206     pn      0         |
   | Augmentation charge Rinner = 0.999                       |
   | Partial core correction Rc = 0.999                       |
   | "3|2.2|2.0|1.0|10|12|13|40:41:32(qc=6)"                  |
   |      Author: Chris J. Pickard, Cambridge University      |

 Pseudo atomic calculation performed for Cu 3d10 4s1

 Converged in 48 iterations to a total energy of -1676.3539 eV
 Calculation not parallelised.

 ************************************ Title ************************************

 ***************************** General Parameters ******************************

 output verbosity                               : normal  (1)
 write checkpoint data to                       : bulk_cu_5x5x5-000000.check
 type of calculation                            : geometry optimization
 stress calculation                             : off
 density difference calculation                 : off
 electron localisation func (ELF) calculation   : off
 Hirshfeld analysis                             : off
 polarisation (Berry phase) analysis            : off
 molecular orbital projected DOS                : off
 deltaSCF calculation                           : off
 unlimited duration calculation
 timing information                             : on
 write extra output files                       : on
 write final potential to formatted file        : off
 write final density to formatted file          : off
 write BibTeX reference list                    : on
 write OTFG pseudopotential files               : on
 write electrostatic potential file             : on
 write bands file                               : on
 checkpoint writing                             : both castep_bin and check files

 output         length unit                     : A
 output           mass unit                     : amu
 output           time unit                     : ps
 output         charge unit                     : e
 output           spin unit                     : hbar/2
 output         energy unit                     : eV
 output          force unit                     : eV/A
 output       velocity unit                     : A/ps
 output       pressure unit                     : GPa
 output     inv_length unit                     : 1/A
 output      frequency unit                     : cm-1
 output force constant unit                     : eV/A**2
 output         volume unit                     : A**3
 output   IR intensity unit                     : (D/A)**2/amu
 output         dipole unit                     : D
 output         efield unit                     : eV/A/e
 output        entropy unit                     : J/mol/K
 output    efield chi2 unit                     : pm/V

 wavefunctions paging                           : none
 random number generator seed                   :  154143668
 data distribution                              : optimal for this architecture

 *********************** Exchange-Correlation Parameters ***********************

 using functional                               : Perdew Burke Ernzerhof
 relativistic treatment                         : Koelling-Harmon
 DFT+D: Semi-empirical dispersion correction    : off

 ************************* Pseudopotential Parameters **************************

 pseudopotential representation                 : reciprocal space
 <beta|phi> representation                      : reciprocal space
 spin-orbit coupling                            : off

 **************************** Basis Set Parameters *****************************

 plane wave basis set cut-off                   :   340.0000   eV
 size of standard grid                          :     1.7500
 size of   fine   gmax                          :    16.5316   1/A
 finite basis set correction                    : automatic
 number of sample energies                      :          3
           sample  spacing                      :     5.0000   eV

 **************************** Electronic Parameters ****************************

 number of  electrons                           :  11.00
 net charge of system                           :  0.000
 net spin   of system                           :  1.000
 number of  up  spins                           :  6.000
 number of down spins                           :  5.000
 treating system as spin-polarized
 number of bands                                :         10

 ********************* Electronic Minimization Parameters **********************

 Method: Treating system as metallic with density mixing treatment of electrons,
         and number of  SD  steps               :          1
         and number of  CG  steps               :          4

 total energy / atom convergence tol.           : 0.1000E-04   eV
 eigen-energy convergence tolerance             : 0.1000E-05   eV
 max force / atom convergence tol.              : ignored
 convergence tolerance window                   :          3   cycles
 max. number of SCF cycles                      :         30
 number of fixed-spin iterations                :         10
 smearing scheme                                : Gaussian
 smearing width                                 : 0.2000       eV
 Fermi energy convergence tolerance             : 0.2721E-13   eV
 periodic dipole correction                     : NONE

 ************************** Density Mixing Parameters **************************

 density-mixing scheme                          : Broyden
 max. length of mixing history                  :         20
 charge density mixing amplitude                : 0.8000
   spin density mixing amplitude                :  2.000
 cut-off energy for mixing                      :  340.0       eV

 *********************** Population Analysis Parameters ************************

 Population analysis with cutoff                :  3.000       A
 Population analysis output                     : summary and pdos components

 ********************** Geometry Optimization Parameters ***********************

 optimization method                            : LBFGS
 max. no. of LBFGS updates                      : unbounded
 variable cell method                           : fixed basis quality
 max. number of steps                           :         30
 estimated bulk modulus                         :  500.0       GPa
 estimated <frequency>                          :  1668.       cm-1
 geom line minimiser                            : on
 with line minimiser tolerance                  :     0.4000
  with spin fully able to relax for all steps
 total energy convergence tolerance             : 0.2000E-04   eV/atom
        max ionic |force| tolerance             : 0.5000E-01   eV/A
 max ionic |displacement| tolerance             : 0.1000E-02   A
   max |stress component| tolerance             : 0.1000       GPa
 convergence tolerance window                   :          2   steps
 backup results every                           :          5   steps
 write geom trajectory file                     : on

                                      Unit Cell
        Real Lattice(A)                      Reciprocal Lattice(1/A)
     0.0000000     1.8075000     1.8075000       -1.738087222   1.738087222   1.738087222
     1.8075000     0.0000000     1.8075000        1.738087222  -1.738087222   1.738087222
     1.8075000     1.8075000     0.0000000        1.738087222   1.738087222  -1.738087222

                       Lattice parameters(A)       Cell Angles
                    a =      2.556191          alpha =   60.000000
                    b =      2.556191          beta  =   60.000000
                    c =      2.556191          gamma =   60.000000

                       Current cell volume =            11.810408       A**3
                                   density =             5.380508   AMU/A**3
                                           =             8.934544     g/cm^3

                                     Cell Contents
                         Total number of ions in cell =    1
                      Total number of species in cell =    1
                        Max number of any one species =    1

            x  Element    Atom        Fractional coordinates of atoms  x
            x            Number           u          v          w      x
            x  Cu           1         0.000000   0.000000   0.000000   x

                         No user defined ionic velocities

                                   Details of Species

                               Mass of species in AMU
                                    Cu   63.5460000

                          Electric Quadrupole Moment (Barn)
                                    Cu   -0.2200000 Isotope 63

                          Files used for pseudopotentials:
                                    Cu 3|2.2|2.0|1.0|10|12|13|40:41:32(qc=6)

                              k-Points For BZ Sampling
                       MP grid size for SCF calculation is  5  5  5
                            with an offset of   0.000  0.000  0.000
                       Number of kpoints used =            63

                               Symmetry and Constraints

                      Maximum deviation from symmetry =  0.00000         ANG

                      Number of symmetry operations   =           1
                      Number of ionic constraints     =           3
                      Point group of crystal =     1: C1, 1, 1
                      Space group of crystal =   225: Fm-3m, -F 4 2 3

             Set iprint > 1 for details on symmetry rotations/translations

                         Centre of mass is constrained
             Set iprint > 1 for details of linear ionic constraints

                         Number of cell constraints= 0
                         Cell constraints are:  1 2 3 4 5 6

                         External pressure/stress (GPa)
                          0.00000   0.00000   0.00000
                                    0.00000   0.00000
                                              0.00000

Integrated Spin Density     =    0.111061E-04 hbar/2
Integrated |Spin Density|   =    0.163220E-04 hbar/2

Final energy, E             =  -1680.589545116     eV
Final free energy (E-TS)    =  -1680.594843889     eV
(energies not corrected for finite basis set)

NB est. 0K energy (E-0.5TS)      =  -1680.592194502     eV

Calculating total energy with cut-off of  335.000 eV.
------------------------------------------------------------------------ <-- SCF
SCF loop      Energy           Fermi           Energy gain       Timer   <-- SCF
                               energy          per atom          (sec)   <-- SCF
------------------------------------------------------------------------ <-- SCF
Initial  -1.68058955E+003  0.00000000E+000                        17.80  <-- SCF
      1  -1.68063398E+003  4.07382978E+000   4.44300361E-002      18.23  <-- SCF
      2  -1.68063399E+003  4.07382978E+000   1.47281153E-005      18.86  <-- SCF
      3  -1.68063406E+003  4.08084140E+000   7.18926544E-005      19.61  <-- SCF
      4  -1.68063398E+003  4.07488715E+000  -8.58615220E-005      20.15  <-- SCF
      5  -1.68063398E+003  4.07486445E+000   2.74088592E-006      20.50  <-- SCF
      6  -1.68063398E+003  4.07472587E+000   9.44874922E-009      20.90  <-- SCF
------------------------------------------------------------------------ <-- SCF

[...]

Calculating total energy with cut-off of  340.000 eV.
------------------------------------------------------------------------ <-- SCF
SCF loop      Energy           Fermi           Energy gain       Timer   <-- SCF
                               energy          per atom          (sec)   <-- SCF
------------------------------------------------------------------------ <-- SCF
Initial  -1.68062868E+003  0.00000000E+000                        21.01  <-- SCF
      1  -1.68069726E+003  4.07427564E+000   6.85836140E-002      21.45  <-- SCF
      2  -1.68069729E+003  4.07427548E+000   2.53049521E-005      21.91  <-- SCF
      3  -1.68069743E+003  4.08316321E+000   1.38222917E-004      22.58  <-- SCF
      4  -1.68069727E+003  4.07505488E+000  -1.56283339E-004      23.33  <-- SCF
      5  -1.68069728E+003  4.07495032E+000   5.11347131E-006      23.76  <-- SCF
      6  -1.68069728E+003  4.07473214E+000   2.17151665E-008      24.20  <-- SCF
------------------------------------------------------------------------ <-- SCF

[...]

 For future reference: finite basis dEtot/dlog(Ecut) =      -4.086507eV
 Total energy corrected for finite basis set =   -1680.716135 eV

 ***************** Stress Tensor *****************
 *          Cartesian components (GPa)           *
 *             x             y             z     *
 *  x     -4.895328     -0.009609     -0.009609  *
 *  y     -0.009609     -4.895328     -0.009609  *
 *  z     -0.009609     -0.009609     -4.895328  *
 *  Pressure:    4.8953                          *
 LBFGS: finished iteration     0 with enthalpy= -1.68071614E+003 eV

 +-----------+-----------------+-----------------+------------+-----+ <-- LBFGS
 | Parameter |      value      |    tolerance    |    units   | OK? | <-- LBFGS
 +-----------+-----------------+-----------------+------------+-----+ <-- LBFGS
 |  dE/ion   |   0.000000E+000 |   2.000000E-005 |         eV | No  | <-- LBFGS
 |   Smax    |   4.895328E+000 |   1.000000E-001 |        GPa | No  | <-- LBFGS
 +-----------+-----------------+-----------------+------------+-----+ <-- LBFGS

 Starting LBFGS iteration          1 ...

 +------------+-------------+-------------+-----------------+ <-- min LBFGS
 |    Step    |   lambda    |   F.delta'  |    enthalpy     | <-- min LBFGS
 +------------+-------------+-------------+-----------------+ <-- min LBFGS
 |  previous  |    0.000000 |    0.022969 |    -1680.716135 | <-- min LBFGS
 +------------+-------------+-------------+-----------------+ <-- min LBFGS

 LBFGS: starting iteration         1 with trial guess (lambda=  1.000000)

[...]

                Current cell volume =            11.926418 A**3
                            density =             5.328172 amu/A**3
                                    =             8.847637 g/cm^3

------------------------------------------------------------------------ <-- SCF
SCF loop      Energy           Fermi           Energy gain       Timer   <-- SCF
                               energy          per atom          (sec)   <-- SCF
------------------------------------------------------------------------ <-- SCF
Initial  -1.68064592E+003  0.00000000E+000                        24.45  <-- SCF
      1  -1.68076949E+003  3.85391774E+000   1.23572439E-001      25.78  <-- SCF
      2  -1.68076953E+003  3.85391702E+000   3.60898276E-005      26.80  <-- SCF
      3  -1.68091230E+003  4.43649644E+000   1.42777781E-001      27.93  <-- SCF
      4  -1.68070009E+003  3.97347273E+000  -2.12209612E-001      28.74  <-- SCF
      5  -1.68070842E+003  3.99627017E+000   8.32198635E-003      29.45  <-- SCF
      6  -1.68070842E+003  3.99582195E+000   1.57304128E-006      29.97  <-- SCF
      7  -1.68070842E+003  3.99589514E+000   9.86790949E-008      30.39  <-- SCF
      8  -1.68070842E+003  3.99589178E+000   5.78518131E-009      30.89  <-- SCF
------------------------------------------------------------------------ <-- SCF

[...]

 ***************** Stress Tensor *****************
 *          Cartesian components (GPa)           *
 *             x             y             z     *
 *  x     -4.350404     -0.006639     -0.006639  *
 *  y     -0.006639     -4.350404     -0.006639  *
 *  z     -0.006639     -0.006639     -4.350404  *
 *  Pressure:    4.3504                          *

 +------------+-------------+-------------+-----------------+ <-- min LBFGS
 |    Step    |   lambda    |   F.delta'  |    enthalpy     | <-- min LBFGS
 +------------+-------------+-------------+-----------------+ <-- min LBFGS
 |  previous  |    0.000000 |    0.022969 |    -1680.716135 | <-- min LBFGS
 | trial step |    1.000000 |    0.020546 |    -1680.713257 | <-- min LBFGS
 +------------+-------------+-------------+-----------------+ <-- min LBFGS

 LBFGS: improving iteration         1 with line minimization (lambda=  9.478067)

[...]

 +------------+-------------+-------------+-----------------+ <-- min LBFGS
 |    Step    |   lambda    |   F.delta'  |    enthalpy     | <-- min LBFGS
 +------------+-------------+-------------+-----------------+ <-- min LBFGS
 |  previous  |    0.000000 |    0.022969 |    -1680.716135 | <-- min LBFGS
 | trial step |    1.000000 |    0.020546 |    -1680.713257 | <-- min LBFGS
 |  line step |    9.478067 |   -0.022991 |    -1680.682235 | <-- min LBFGS
 +------------+-------------+-------------+-----------------+ <-- min LBFGS

 LBFGS: improving iteration         1 with quad minimization (lambda=  5.000965)

[...]

 +------------+-------------+-------------+-----------------+ <-- min LBFGS
 |    Step    |   lambda    |   F.delta'  |    enthalpy     | <-- min LBFGS
 +------------+-------------+-------------+-----------------+ <-- min LBFGS
 |  previous  |    0.000000 |    0.022969 |    -1680.716135 | <-- min LBFGS
 | trial step |    1.000000 |    0.020546 |    -1680.713257 | <-- min LBFGS
 |  line step |    9.478067 |   -0.022991 |    -1680.682235 | <-- min LBFGS
 |  quad step |    5.000965 |    0.001061 |    -1680.707153 | <-- min LBFGS
 +------------+-------------+-------------+-----------------+ <-- min LBFGS

 LBFGS: finished iteration     1 with enthalpy= -1.68070715E+003 eV

[...]

 LBFGS: improving iteration         2 with quad minimization (lambda=  0.875541)

[...]

 +------------+-------------+-------------+-----------------+ <-- min LBFGS
 |    Step    |   lambda    |   F.delta'  |    enthalpy     | <-- min LBFGS
 +------------+-------------+-------------+-----------------+ <-- min LBFGS
 |  previous  |    0.000000 |    0.001061 |    -1680.707153 | <-- min LBFGS
 | trial step |    1.000000 |    0.002340 |    -1680.705866 | <-- min LBFGS
 |  line step |   -0.829506 |    0.004417 |    -1680.707059 | <-- min LBFGS
 |  quad step |    0.875541 |    0.002729 |    -1680.705854 | <-- min LBFGS
 +------------+-------------+-------------+-----------------+ <-- min LBFGS

 LBFGS: updated estimated bulk modulus =  93.76938 GPa
 LBFGS: finished iteration     2 with enthalpy= -1.68070585E+003 eV

 +-----------+-----------------+-----------------+------------+-----+ <-- LBFGS
 | Parameter |      value      |    tolerance    |    units   | OK? | <-- LBFGS
 +-----------+-----------------+-----------------+------------+-----+ <-- LBFGS
 |  dE/ion   |   1.298716E-003 |   2.000000E-005 |         eV | No  | <-- LBFGS
 |   Smax    |   5.622638E-001 |   1.000000E-001 |        GPa | No  | <-- LBFGS
 +-----------+-----------------+-----------------+------------+-----+ <-- LBFGS

[...]

 LBFGS: improving iteration         3 with line minimization (lambda=  0.332259)

[...]

 +------------+-------------+-------------+-----------------+ <-- min LBFGS
 |    Step    |   lambda    |   F.delta'  |    enthalpy     | <-- min LBFGS
 +------------+-------------+-------------+-----------------+ <-- min LBFGS
 |  previous  |    0.000000 |    0.002729 |    -1680.705854 | <-- min LBFGS
 | trial step |    1.000000 |   -0.005484 |    -1680.705726 | <-- min LBFGS
 |  line step |    0.332259 |   -0.000014 |    -1680.705896 | <-- min LBFGS
 +------------+-------------+-------------+-----------------+ <-- min LBFGS

[...]

 +-----------+-----------------+-----------------+------------+-----+ <-- LBFGS
 | Parameter |      value      |    tolerance    |    units   | OK? | <-- LBFGS
 +-----------+-----------------+-----------------+------------+-----+ <-- LBFGS
 |  dE/ion   |   4.174449E-005 |   2.000000E-005 |         eV | No  | <-- LBFGS
 |   Smax    |   3.008591E-003 |   1.000000E-001 |        GPa | Yes | <-- LBFGS
 +-----------+-----------------+-----------------+------------+-----+ <-- LBFGS

 Starting LBFGS iteration          4 ...

 +------------+-------------+-------------+-----------------+ <-- min LBFGS
 |    Step    |   lambda    |   F.delta'  |    enthalpy     | <-- min LBFGS
 +------------+-------------+-------------+-----------------+ <-- min LBFGS
 |  previous  |    0.000000 |    0.000022 |    -1680.705896 | <-- min LBFGS
 +------------+-------------+-------------+-----------------+ <-- min LBFGS

 LBFGS: starting iteration         4 with trial guess (lambda=  1.000000)

[...]

------------------------------------------------------------------------ <-- SCF
SCF loop      Energy           Fermi           Energy gain       Timer   <-- SCF
                               energy          per atom          (sec)   <-- SCF
------------------------------------------------------------------------ <-- SCF
Initial  -1.68070827E+003  0.00000000E+000                       106.86  <-- SCF
      1  -1.68071357E+003  3.66049153E+000   5.29843382E-003     107.24  <-- SCF
      2  -1.68071357E+003  3.66049153E+000   6.90060897E-009     107.62  <-- SCF
      3  -1.68071357E+003  3.66004541E+000   1.52752104E-007     108.95  <-- SCF
      4  -1.68071357E+003  3.66035698E+000  -2.30348476E-007     109.72  <-- SCF
      5  -1.68071357E+003  3.66033625E+000   8.83854126E-009     110.60  <-- SCF
------------------------------------------------------------------------ <-- SCF

Integrated Spin Density     =    0.459839E-14 hbar/2
Integrated |Spin Density|   =    0.538900E-11 hbar/2

Final energy, E             =  -1680.708267855     eV
Final free energy (E-TS)    =  -1680.713566036     eV
(energies not corrected for finite basis set)

NB est. 0K energy (E-0.5TS)      =  -1680.710916946     eV

[...]

 +------------+-------------+-------------+-----------------+ <-- min LBFGS
 |    Step    |   lambda    |   F.delta'  |    enthalpy     | <-- min LBFGS
 +------------+-------------+-------------+-----------------+ <-- min LBFGS
 |  previous  |    0.000000 |    0.000022 |    -1680.705896 | <-- min LBFGS
 | trial step |    1.000000 |   -0.000013 |    -1680.705896 | <-- min LBFGS
 +------------+-------------+-------------+-----------------+ <-- min LBFGS

 LBFGS: finished iteration     4 with enthalpy= -1.68070590E+003 eV

 +-----------+-----------------+-----------------+------------+-----+ <-- LBFGS
 | Parameter |      value      |    tolerance    |    units   | OK? | <-- LBFGS
 +-----------+-----------------+-----------------+------------+-----+ <-- LBFGS
 |  dE/ion   |   5.372382E-009 |   2.000000E-005 |         eV | Yes | <-- LBFGS
 |   Smax    |   3.406902E-003 |   1.000000E-001 |        GPa | Yes | <-- LBFGS
 +-----------+-----------------+-----------------+------------+-----+ <-- LBFGS

 LBFGS: Geometry optimization completed successfully.

 LBFGS: Final Configuration:

                                      Unit Cell
        Real Lattice(A)              Reciprocal Lattice(1/A)
     0.0000508     1.8394498     1.8394498       -1.707968769   1.707921600   1.707921600
     1.8394498     0.0000508     1.8394498        1.707921600  -1.707968769   1.707921600
     1.8394498     1.8394498     0.0000508        1.707921600   1.707921600  -1.707968769

                       Lattice parameters(A)       Cell Angles
                    a =      2.601375          alpha =   59.998173
                    b =      2.601375          beta  =   59.998173
                    c =      2.601375          gamma =   59.998173

                Current cell volume =            12.447319 A**3
                            density =             5.105196 amu/A**3
                                    =             8.477377 g/cm^3

 LBFGS: Final Enthalpy     = -1.68070590E+003 eV
 LBFGS: Final bulk modulus =     283.54520 GPa

 ************************************** Forces **************************************
 *                           Cartesian components (eV/A)                            *
 *                         x                    y                    z              *
 * Cu              1      0.00000              0.00000              0.00000         *

 ***************** Stress Tensor *****************
 *          Cartesian components (GPa)           *
 *             x             y             z     *
 *  x     -0.003407     -0.001298     -0.001298  *
 *  y     -0.001298     -0.003407     -0.001298  *
 *  z     -0.001298     -0.001298     -0.003407  *
 *  Pressure:    0.0034                          *

 Pseudo atomic calculation performed for Cu 3d10 4s1

 Converged in 48 iterations to a total energy of -1676.3539 eV
Charge spilling parameter for spin component 1 = 0.08%
Charge spilling parameter for spin component 2 = 0.08%

                   Orbital Populations
     Ion    Atom   Orbital              Up        Down      Spin
     Cu     1      Dzz                  0.979     0.979    -0.000
     Cu     1      Dzy                  0.969     0.969    -0.000
     Cu     1      Dzx                  0.969     0.969    -0.000
     Cu     1      Dxx-yy               0.979     0.979     0.000
     Cu     1      Dxy                  0.969     0.969    -0.000
     Cu     1      S                    0.364     0.364     0.000
     Cu     1      Px                   0.091     0.091     0.000
     Cu     1      Py                   0.091     0.091     0.000
     Cu     1      Pz                   0.091     0.091     0.000
                           Total:       5.500     5.500     0.000

     Atomic Populations (Mulliken)
Species          Ion Spin      s       p       d       f      Total   Charge(e)   Spin(hbar/2)
  Cu              1   up:     0.364   0.272   4.864   0.000   5.500     0.000        0.000
                  1   dn:     0.364   0.272   4.864   0.000   5.500

                 Bond                   Population        Spin       Length (A)

Writing analysis data to bulk_cu_5x5x5-000000.castep_bin

Writing model to bulk_cu_5x5x5-000000.check

 A BibTeX formatted list of references used in this run has been written to
 bulk_cu_5x5x5-000000.bib

Initialisation time =      4.52 s
Calculation time    =    107.63 s
Finalisation time   =      0.23 s
Total time          =    112.38 s